20
1 0 1
2 0 5
2 1 5
3 0 4
4 0 3
5 0 1
5 3 1
5 4 4
6 3 2
6 5 1
7 0 4
7 1 4
7 2 4
7 4 1
8 0 5
8 2 3
8 5 5
9 3 2
9 7 4
10 0 1
10 1 5
10 2 1
10 4 4
10 5 4
10 7 5
10 8 1
10 9 4
11 3 3
11 5 1
11 6 5
11 7 5
11 8 4
12 0 3
12 1 1
12 2 3
12 3 3
12 6 1
12 7 1
12 10 1
12 11 4
13 0 3
13 1 3
13 4 4
13 10 2
13 11 1
13 12 5
14 0 2
14 1 4
14 2 1
14 7 3
14 8 1
14 9 3
14 10 1
14 12 1
15 0 1
15 2 2
15 5 5
15 6 1
15 11 5
15 12 1
16 0 3
16 3 1
16 5 1
16 6 4
16 10 1
16 15 3
17 1 2
17 6 1
17 11 2
17 13 5
17 15 1
17 16 4
18 0 2
18 1 5
18 2 1
18 4 5
18 6 5
18 7 1
18 8 5
18 12 2
19 0 3
19 1 3
19 2 4
19 4 3
19 5 1
19 6 1
19 8 2
19 9 4
19 10 2
19 15 5
19 16 4
19 18 4
